c This Formular is generated by mcnf
c
c    horn? no 
c    forced? no 
c    mixed sat? no 
c    clause length = 3 
c
p cnf 20  91 
 13 14 9 0
5 -10 -18 0
-18 -1 -7 0
20 -19 -10 0
-8 -1 18 0
17 6 19 0
6 -14 13 0
16 -18 7 0
18 16 4 0
6 8 -3 0
8 19 20 0
10 -9 3 0
-8 7 -1 0
1 -6 -11 0
6 19 20 0
3 -10 1 0
12 6 -14 0
16 -9 -18 0
-11 -3 -4 0
1 -13 -15 0
-12 -4 -16 0
%
0

56 18 12 70 80 41 89 9 45 8 67 52 34 24 15 69 93 57 59 16
